Minimize
  - 26 y_0 - 44 y_1 - 42 y_2 - 30 y_3 - 67 y_4 - 36 y_5 - 44 y_6 - 35 y_7
   - 34 y_8 - 70 y_9 - 51 y_10 - 24 y_11 - 57 y_13 - 59 y_14 - 66 y_15
   - 18 y_16 - 44 y_17 - 55 y_18 - 67 y_19 + 869 Constant
Subject To
 c_0: y_3 = 1
 c_1_0: y_0 + y_11 + y_16 >= 1
 c_1_1: y_1 + y_2 + y_5 >= 1
 c_1_2: y_1 + y_2 >= 1
 c_1_3: y_3 >= 1
 c_1_4: y_4 >= 1
 c_1_5: y_1 + y_5 + y_8 >= 1
 c_1_6: y_6 + y_10 + y_17 >= 1
 c_1_7: y_7 >= 1
 c_1_8: y_5 + y_8 >= 1
 c_1_9: y_9 + y_15 >= 1
 c_1_10: y_6 + y_10 + y_17 >= 1
 c_1_11: y_0 + y_11 >= 1
 c_1_12: y_12 >= 1
 c_1_13: y_13 + y_15 >= 1
 c_1_14: y_14 >= 1
 c_1_15: y_9 + y_13 + y_15 >= 1
 c_1_16: y_0 + y_16 >= 1
 c_1_17: y_6 + y_10 + y_17 >= 1
 c_1_18: y_18 >= 1
 c_1_19: y_19 >= 1
Bounds
 Constant = 1
Binaries
 y_0 y_1 y_2 y_3 y_4 y_5 y_6 y_7 y_8 y_9 y_10 y_11 y_12 y_13 y_14 y_15 y_16
 y_17 y_18 y_19
End
